General:

ISTART = 0
LCHARG = .FALSE.
LWAVE = .FALSE.
LREAL = Auto
ISYM = 0

ENCUT = 600 
PREC = Accurate
#LREAL = .FALSE
EDIFF = 1E-7
ISPIN = 2
#Ionic relaxion

ISIF = 2
EDIFFG = -0.001 # eV/A
NSW = 0
NELM = 100
NELMIN = 4
POTIM = 0.2
IBRION = 2
ICHARG = 2

ISMEAR = 0
SIGMA = 0.05

#Electronic relaxation 2
ALGO = Normal
GGA = PE

#VDW parameter
IVDW = 10

# External electric field

LDIPOL = .TRUE.
IDIPOL = 3
KGAMMA = True
KSPACING = 0.25

